10 7 6 10 -1 
2 -1 -1 -1 -1 
3 4 7 6 -1 
4 2 7 -1 -1 
3 -1 4 8 -1 
1 6 5 -1 -1 
1 9 -1 0 -1 
-1 10 -1 10 -1 
8 -1 2 3 -1 
7 10 10 0 -1 
10 2 10 9 -1 
9 1 -1 8 -1 
3 -1 5 -1 -1 
6 7 1 6 -1 
-1 9 8 -1 -1 
